

[dSTAT]	OptCodeLnk	dSTR	dDEX	dINT	level
0	1	0	0	0	1
1	2	0	0	0	1
2	3	0	0	0	1
3	4	0	0	0	1
4	5	0	0	0	1
5	6	0	0	0	1
6	7	0	0	0	1
7	8	0	0	0	1
8	9	0	0	0	2
9	10	0	0	0	2
10	11	0	0	0	2
11	12	0	0	0	2
12	13	0	0	0	2
13	23	0	0	0	1
14	24	0	0	0	1
15	25	0	0	0	2
16	26	0	0	0	1
17	28	0	0	0	1
18	29	0	0	0	2
19	30	0	0	0	3
20	31	0	0	0	3
21	32	0	0	0	3
22	33	0	0	0	3
23	34	0	0	0	2
24	35	0	0	0	2
25	36	0	0	0	2
26	37	0	0	0	2
27	38	0	0	0	2
28	39	0	0	0	2
29	40	0	0	0	2
30	41	0	0	0	3
31	42	0	0	0	3
32	43	0	0	0	2
33	44	0	0	0	2
34	45	0	0	0	3
35	46	0	0	0	3
36	47	0	0	0	3
37	48	0	0	0	3
38	49	0	0	0	2
39	50	0	0	0	2
40	51	0	0	0	3
41	52	0	0	0	3
42	53	0	0	0	3
43	54	0	0	0	3
44	55	0	0	0	3
45	56	0	0	0	3
46	57	0	0	0	3
47	58	0	0	0	3
48	59	0	0	0	3
49	60	0	0	0	3

[CoreLink]	CoreNum	OptCodeLnk	Rank1	Rank2	Rank3	Rank4	Rank5	Rank6	Rank7	Rank8	Rank9	Rank10	ACSY
0	1	1	50	50	50	50	50	50	50	50	50	50	10
1	2	1	100	100	100	100	100	100	100	100	100	100	20
2	3	1	150	150	150	150	150	150	150	150	150	150	30
3	4	1	200	200	200	200	200	200	200	200	200	200	50
4	1	2	50	50	50	50	50	50	50	50	50	50	10
5	2	2	100	100	100	100	100	100	100	100	100	100	20
6	3	2	150	150	150	150	150	150	150	150	150	150	30
7	4	2	200	200	200	200	200	200	200	200	200	200	50
8	1	3	4	4	4	4	4	4	4	4	4	4	2
9	2	3	8	8	8	8	8	8	8	8	8	8	4
10	3	3	12	12	12	12	12	12	12	12	12	12	6
11	4	3	15	15	15	15	15	15	15	15	15	15	10
12	1	4	4	4	4	4	4	4	4	4	4	4	2
13	2	4	8	8	8	8	8	8	8	8	8	8	4
14	3	4	12	12	12	12	12	12	12	12	12	12	6
15	4	4	15	15	15	15	15	15	15	15	15	15	10
16	1	5	2	2	2	2	2	2	2	2	2	2	2
17	2	5	4	4	4	4	4	4	4	4	4	4	4
18	3	5	6	6	6	6	6	6	6	6	6	6	6
19	4	5	10	10	10	10	10	10	10	10	10	10	10
20	1	6	50	50	50	50	50	50	50	50	50	50	20
21	2	6	100	100	100	100	100	100	100	100	100	100	40
22	3	6	150	150	150	150	150	150	150	150	150	150	60
23	4	6	250	250	250	250	250	250	250	250	250	250	100
24	1	7	20	20	20	20	20	20	20	20	20	20	10
25	2	7	40	40	40	40	40	40	40	40	40	40	20
26	3	7	60	60	60	60	60	60	60	60	60	60	30
27	4	7	100	100	100	100	100	100	100	100	100	100	50
28	1	8	5	5	5	5	5	5	5	5	5	5	2
29	2	8	10	10	10	10	10	10	10	10	10	10	4
30	3	8	10	10	10	10	10	10	10	10	10	10	6
31	4	8	10	10	10	10	10	10	10	10	10	10	10
32	1	9	5	5	5	5	5	5	5	5	5	5	1
33	2	9	10	10	10	10	10	10	10	10	10	10	2
34	3	9	10	10	10	10	10	10	10	10	10	10	3
35	4	9	10	10	10	10	10	10	10	10	10	10	5
36	1	10	1	1	1	1	1	1	1	1	1	1	1
37	2	10	2	2	2	2	2	2	2	2	2	2	2
38	3	10	3	3	3	3	3	3	3	3	3	3	3
39	4	10	4	4	4	4	4	4	4	4	4	4	4
40	1	11	2	2	2	2	2	2	2	2	2	2	2
41	2	11	4	4	4	4	4	4	4	4	4	4	4
42	3	11	6	6	6	6	6	6	6	6	6	6	6
43	4	11	8	8	8	8	8	8	8	8	8	8	8
44	1	12	10	10	10	10	10	10	10	10	10	10	5
45	2	12	20	20	20	20	20	20	20	20	20	20	10
46	3	12	30	30	30	30	30	30	30	30	30	30	15
47	4	12	40	40	40	40	40	40	40	40	40	40	20
48	1	13	10	10	10	10	10	10	10	10	10	10	5
49	2	13	20	20	20	20	20	20	20	20	20	20	10
50	3	13	30	30	30	30	30	30	30	30	30	30	15
51	4	13	40	40	40	40	40	40	40	40	40	40	20
52	1	23	8	8	8	8	8	8	8	8	8	8	4
53	2	23	16	16	16	16	16	16	16	16	16	16	8
54	3	23	24	24	24	24	24	24	24	24	24	24	12
55	4	23	30	30	30	30	30	30	30	30	30	30	20
56	1	24	8	8	8	8	8	8	8	8	8	8	4
57	2	24	16	16	16	16	16	16	16	16	16	16	8
58	3	24	24	24	24	24	24	24	24	24	24	24	12
59	4	24	30	30	30	30	30	30	30	30	30	30	20
60	1	25	2	2	2	2	2	2	2	2	2	2	1
61	2	25	4	4	4	4	4	4	4	4	4	4	2
62	3	25	6	6	6	6	6	6	6	6	6	6	3
63	4	25	8	8	8	8	8	8	8	8	8	8	4
64	1	26	100	100	100	100	100	100	100	100	100	100	40
65	2	26	200	200	200	200	200	200	200	200	200	200	80
66	3	26	300	300	300	300	300	300	300	300	300	300	120
67	4	26	500	500	500	500	500	500	500	500	500	500	200
68	1	28	10	10	10	10	10	10	10	10	10	10	4
69	2	28	20	20	20	20	20	20	20	20	20	20	8
70	3	28	20	20	20	20	20	20	20	20	20	20	12
71	4	28	20	20	20	20	20	20	20	20	20	20	20
72	1	29	10	10	10	10	10	10	10	10	10	10	2
73	2	29	20	20	20	20	20	20	20	20	20	20	4
74	3	29	20	20	20	20	20	20	20	20	20	20	6
75	4	29	20	20	20	20	20	20	20	20	20	20	10
76	1	30	5	5	5	5	5	5	5	5	5	5	3
77	2	30	10	10	10	10	10	10	10	10	10	10	4
78	3	30	15	15	15	15	15	15	15	15	15	15	5
79	4	30	20	20	20	20	20	20	20	20	20	20	7
80	1	31	10	10	10	10	10	10	10	10	10	10	6
81	2	31	20	20	20	20	20	20	20	20	20	20	8
82	3	31	30	30	30	30	30	30	30	30	30	30	10
83	4	31	40	40	40	40	40	40	40	40	40	40	14
84	1	32	5	5	5	5	5	5	5	5	5	5	3
85	2	32	10	10	10	10	10	10	10	10	10	10	4
86	3	32	15	15	15	15	15	15	15	15	15	15	5
87	4	32	20	20	20	20	20	20	20	20	20	20	7
88	1	33	10	10	10	10	10	10	10	10	10	10	6
89	2	33	20	20	20	20	20	20	20	20	20	20	8
90	3	33	30	30	30	30	30	30	30	30	30	30	10
91	4	33	40	40	40	40	40	40	40	40	40	40	14
92	1	34	2	2	2	2	2	2	2	2	2	2	1
93	2	34	3	3	3	3	3	3	3	3	3	3	2
94	3	34	4	4	4	4	4	4	4	4	4	4	3
95	4	34	5	5	5	5	5	5	5	5	5	5	4
96	1	35	2	2	2	2	2	2	2	2	2	2	1
97	2	35	3	3	3	3	3	3	3	3	3	3	2
98	3	35	4	4	4	4	4	4	4	4	4	4	3
99	4	35	5	5	5	5	5	5	5	5	5	5	4
100	1	36	1	1	1	1	1	1	1	1	1	1	1
101	2	36	2	2	2	2	2	2	2	2	2	2	2
102	3	36	3	3	3	3	3	3	3	3	3	3	3
103	4	36	4	4	4	4	4	4	4	4	4	4	4
104	1	37	2	2	2	2	2	2	2	2	2	2	2
105	2	37	3	3	3	3	3	3	3	3	3	3	3
106	3	37	4	4	4	4	4	4	4	4	4	4	4
107	4	37	5	5	5	5	5	5	5	5	5	5	5
108	1	38	2	2	2	2	2	2	2	2	2	2	2
109	2	38	3	3	3	3	3	3	3	3	3	3	3
110	3	38	4	4	4	4	4	4	4	4	4	4	4
111	4	38	5	5	5	5	5	5	5	5	5	5	5
112	1	39	5	5	5	5	5	5	5	5	5	5	5
113	2	39	10	10	10	10	10	10	10	10	10	10	10
114	3	39	15	15	15	15	15	15	15	15	15	15	15
115	4	39	20	20	20	20	20	20	20	20	20	20	20
116	1	40	10	10	10	10	10	10	10	10	10	10	10
117	2	40	20	20	20	20	20	20	20	20	20	20	20
118	3	40	30	30	30	30	30	30	30	30	30	30	30
119	4	40	40	40	40	40	40	40	40	40	40	40	40
120	1	41	4	4	4	4	4	4	4	4	4	4	1
121	2	41	8	8	8	8	8	8	8	8	8	8	2
122	3	41	12	12	12	12	12	12	12	12	12	12	3
123	4	41	16	16	16	16	16	16	16	16	16	16	4
124	1	42	8	8	8	8	8	8	8	8	8	8	2
125	2	42	16	16	16	16	16	16	16	16	16	16	4
126	3	42	24	24	24	24	24	24	24	24	24	24	6
127	4	42	32	32	32	32	32	32	32	32	32	32	8
128	1	43	15	15	15	15	15	15	15	15	15	15	5
129	2	43	30	30	30	30	30	30	30	30	30	30	10
130	3	43	45	45	45	45	45	45	45	45	45	45	15
131	4	43	60	60	60	60	60	60	60	60	60	60	20
132	1	44	30	30	30	30	30	30	30	30	30	30	10
133	2	44	60	60	60	60	60	60	60	60	60	60	20
134	3	44	90	90	90	90	90	90	90	90	90	90	30
135	4	44	120	120	120	120	120	120	120	120	120	120	40
136	1	45	8	8	8	8	8	8	8	8	8	8	2
137	2	45	16	16	16	16	16	16	16	16	16	16	4
138	3	45	24	24	24	24	24	24	24	24	24	24	6
139	4	45	32	32	32	32	32	32	32	32	32	32	10
140	1	46	8	8	8	8	8	8	8	8	8	8	2
141	2	46	16	16	16	16	16	16	16	16	16	16	4
142	3	46	24	24	24	24	24	24	24	24	24	24	6
143	4	46	32	32	32	32	32	32	32	32	32	32	10
144	1	47	8	8	8	8	8	8	8	8	8	8	2
145	2	47	16	16	16	16	16	16	16	16	16	16	4
146	3	47	24	24	24	24	24	24	24	24	24	24	6
147	4	47	32	32	32	32	32	32	32	32	32	32	10
148	1	48	3	3	3	3	3	3	3	3	3	3	1
149	2	48	6	6	6	6	6	6	6	6	6	6	2
150	3	48	9	9	9	9	9	9	9	9	9	9	3
151	4	48	12	12	12	12	12	12	12	12	12	12	4
152	1	49	1	1	1	1	1	1	1	1	1	1	1
153	2	49	2	2	2	2	2	2	2	2	2	2	2
154	3	49	3	3	3	3	3	3	3	3	3	3	3
155	4	49	4	4	4	4	4	4	4	4	4	4	4
156	1	50	2	2	2	2	2	2	2	2	2	2	2
157	2	50	4	4	4	4	4	4	4	4	4	4	4
158	3	50	6	6	6	6	6	6	6	6	6	6	6
159	4	50	8	8	8	8	8	8	8	8	8	8	8
160	1	51	3	3	3	3	3	3	3	3	3	3	3
161	2	51	6	6	6	6	6	6	6	6	6	6	6
162	3	51	9	9	9	9	9	9	9	9	9	9	9
163	4	51	12	12	12	12	12	12	12	12	12	12	12
164	1	52	6	6	6	6	6	6	6	6	6	6	6
165	2	52	12	12	12	12	12	12	12	12	12	12	12
166	3	52	18	18	18	18	18	18	18	18	18	18	18
167	4	52	24	24	24	24	24	24	24	24	24	24	24
168	1	53	1	1	1	1	1	1	1	1	1	1	1
169	2	53	1	1	1	1	1	1	1	1	1	1	1
170	3	53	1	1	1	1	1	1	1	1	1	1	1
171	4	53	1	1	1	1	1	1	1	1	1	1	1
172	1	54	1	1	1	1	1	1	1	1	1	1	1
173	2	54	1	1	1	1	1	1	1	1	1	1	1
174	3	54	1	1	1	1	1	1	1	1	1	1	1
175	4	54	1	1	1	1	1	1	1	1	1	1	1
176	1	55	1	1	1	1	1	1	1	1	1	1	1
177	2	55	1	1	1	1	1	1	1	1	1	1	1
178	3	55	1	1	1	1	1	1	1	1	1	1	1
179	4	55	1	1	1	1	1	1	1	1	1	1	1
180	1	56	1	1	1	1	1	1	1	1	1	1	1
181	2	56	1	1	1	1	1	1	1	1	1	1	1
182	3	56	1	1	1	1	1	1	1	1	1	1	1
183	4	56	1	1	1	1	1	1	1	1	1	1	1
184	1	57	1	1	1	1	1	1	1	1	1	1	1
185	2	57	1	1	1	1	1	1	1	1	1	1	1
186	3	57	1	1	1	1	1	1	1	1	1	1	1
187	4	57	1	1	1	1	1	1	1	1	1	1	1
188	1	58	1	1	1	1	1	1	1	1	1	1	1
189	2	58	1	1	1	1	1	1	1	1	1	1	1
190	3	58	1	1	1	1	1	1	1	1	1	1	1
191	4	58	1	1	1	1	1	1	1	1	1	1	1
192	1	59	1	1	1	1	1	1	1	1	1	1	1
193	2	59	1	1	1	1	1	1	1	1	1	1	1
194	3	59	1	1	1	1	1	1	1	1	1	1	1
195	4	59	1	1	1	1	1	1	1	1	1	1	1
196	1	60	1	1	1	1	1	1	1	1	1	1	1
197	2	60	1	1	1	1	1	1	1	1	1	1	1
198	3	60	1	1	1	1	1	1	1	1	1	1	1
199	4	60	1	1	1	1	1	1	1	1	1	1	1

[EnchantCore]	CoreLv	CoreNum	Penalty	Rate
0	1	0	<null>	75
1	2	0	<null>	50
2	3	0	<null>	50
3	1	1	<null>	50
4	2	1	<null>	50
5	3	1	<null>	50
6	1	2	1	50
7	2	2	1	50
8	3	2	1	50
9	1	3	2	50
10	2	3	2	50
11	3	3	2	50


[Core]	C2	C3	C4	C5	OCPoint	UCPoint	SlotNum	CSlot
0	7000	7000	7000	7000	0	0	0	9900
1	3000	2500	2500	2500	5	1	1	89
2	0	500	400	400	10	2	2	9
3	0	0	100	90	0	4	3	2
4	0	0	0	10	0	10	0	0


[Option]	Wep2Lnk	Wep2Lv	WepnLnk	WepnLv	SuitLnk	SuitLv	GlovLnk	GlovLv	BootLnk	BootLv	HMetLnk	HMetLv	RingLnk	RingLv	AmulLnk	AmulLv	ErngLnk	ErngLv	BlecLnk	BlecLv	EpulLnk	EpulLv	BikeLnk	BikeLv
0	<null>	<null>	<null>	<null>	<null>	<null>	<null>	<null>	<null>	<null>	<null>	<null>	<null>	<null>	<null>	<null>	<null>	<null>	<null>	<null>	<null>	<null>	<null>	<null>
1	23	1	3	1	1	1	5	1	5	1	2	1	3	1	5	1	1	1	12	2	1	1	1	1
2	24	1	4	1	5	1	6	1	7	1	5	1	4	1	25	2	5	1	13	2	3	1	3	1
3	26	1	6	1	7	1	7	1	1	1	7	1	6	1	36	2	7	1	30	3	4	1	4	1
4	28	1	8	1	2	1	3	1	2	1	8	1	10	2	37	2	12	2	32	3	5	1	5	1
5	29	2	9	2	37	2	37	2	37	2	9	2	39	2	38	2	13	2	34	2	6	1	6	1
6	52	3	51	3	51	3	51	3	51	3	51	3	41	3	42	3	36	2	35	2	7	1	7	1
7	42	3	41	3	41	3	41	3	41	3	41	3	48	3	48	3	41	3	41	3	30	3	34	2
8	31	3	30	3	30	3	30	3	30	3	30	3	<null>	0	<null>	0	48	3	48	3	32	3	42	3
9	33	3	32	3	32	3	32	3	32	3	32	3	<null>	0	<null>	0	<null>	0	<null>	0	36	2	48	3
10	<null>	0	<null>	0	<null>	0	<null>	0	<null>	0	<null>	0	<null>	0	<null>	0	<null>	0	<null>	0	<null>	0	<null>	0
11	11	2	10	2	38	2	38	2	38	2	12	2	<null>	0	<null>	0	<null>	0	<null>	0	42	3	<null>	0
12	40	2	39	2	25	2	25	2	12	2	13	2	<null>	0	<null>	0	<null>	0	<null>	0	48	3	<null>	0
13	44	2	43	2	43	2	34	2	43	2	43	2	<null>	0	<null>	0	<null>	0	<null>	0	<null>	0	<null>	0
14	50	2	49	2	36	2	35	2	36	2	49	2	<null>	0	<null>	0	<null>	0	<null>	0	<null>	0	<null>	0
15	<null>	0	<null>	0	<null>	0	<null>	0	<null>	0	<null>	0	<null>	0	<null>	0	<null>	0	<null>	0	<null>	0	<null>	0

[dUpgCore0]	2HndPA	2HndMA	2HndAR	1HndPA	1HndMA	1HndAR	MWpnPA	MWpnMA	MWpnAR	dSuit	dSuitDR	dGlov	dGlovDR	dBoot	dBootDR	dHMet	dHMetDR
0	<null>	<null>	<null>	<null>	<null>	<null>	<null>	<null>	<null>	<null>	<null>	<null>	<null>	<null>	<null>	<null>	<null>
1	6	3	24	3	2	12	2	3	12	3	3	3	3	3	3	3	3
2	12	6	48	6	4	24	4	6	24	6	6	6	6	6	6	6	6
3	18	9	72	9	6	36	6	9	36	9	9	9	9	9	9	9	9
4	24	12	96	12	8	48	8	12	48	12	12	12	12	12	12	12	12
5	30	15	120	15	10	60	10	15	60	15	15	15	15	15	15	15	15
6	36	18	144	18	12	72	12	18	72	18	18	18	18	18	18	18	18
7	42	21	168	21	14	84	14	21	84	21	21	21	21	21	21	21	21
8	48	24	192	24	16	96	16	24	96	24	24	24	24	24	24	24	24
9	54	27	216	27	18	108	18	27	108	27	27	27	27	27	27	27	27

[dUpgCore1]	2HndPA	2HndMA	2HndAR	1HndPA	1HndMA	1HndAR	MWpnPA	MWpnMA	MWpnAR	dSuit	dSuitDR	dGlov	dGlovDR	dBoot	dBootDR	dHMet	dHMetDR
0	<null>	<null>	<null>	<null>	<null>	<null>	<null>	<null>	<null>	<null>	<null>	<null>	<null>	<null>	<null>	<null>	<null>
1	6	3	24	3	2	12	2	3	12	3	3	3	3	3	3	3	3
2	12	6	48	6	4	24	4	6	24	6	6	6	6	6	6	6	6
3	18	9	72	9	6	36	6	9	36	9	9	9	9	9	9	9	9
4	24	12	96	12	8	48	8	12	48	12	12	12	12	12	12	12	12
5	30	15	120	15	10	60	10	15	60	15	15	15	15	15	15	15	15
6	36	18	144	18	12	72	12	18	72	18	18	18	18	18	18	18	18
7	42	21	168	21	14	84	14	21	84	21	21	21	21	21	21	21	21
8	48	24	192	24	16	96	16	24	96	24	24	24	24	24	24	24	24
9	54	27	216	27	18	108	18	27	108	27	27	27	27	27	27	27	27

[dUpgCore2]	2HndPA	2HndMA	2HndAR	1HndPA	1HndMA	1HndAR	MWpnPA	MWpnMA	MWpnAR	dSuit	dSuitDR	dGlov	dGlovDR	dBoot	dBootDR	dHMet	dHMetDR
0	<null>	<null>	<null>	<null>	<null>	<null>	<null>	<null>	<null>	<null>	<null>	<null>	<null>	<null>	<null>	<null>	<null>
1	6	3	24	3	2	12	2	3	12	3	3	3	3	3	3	3	3
2	12	6	48	6	4	24	4	6	24	6	6	6	6	6	6	6	6
3	18	9	72	9	6	36	6	9	36	9	9	9	9	9	9	9	9
4	24	12	96	12	8	48	8	12	48	12	12	12	12	12	12	12	12
5	30	15	120	15	10	60	10	15	60	15	15	15	15	15	15	15	15
6	36	18	144	18	12	72	12	18	72	18	18	18	18	18	18	18	18
7	42	21	168	21	14	84	14	21	84	21	21	21	21	21	21	21	21
8	48	24	192	24	16	96	16	24	96	24	24	24	24	24	24	24	24
9	54	27	216	27	18	108	18	27	108	27	27	27	27	27	27	27	27

[dUpgCore3]	2HndPA	2HndMA	2HndAR	1HndPA	1HndMA	1HndAR	MWpnPA	MWpnMA	MWpnAR	dSuit	dSuitDR	dGlov	dGlovDR	dBoot	dBootDR	dHMet	dHMetDR
0	<null>	<null>	<null>	<null>	<null>	<null>	<null>	<null>	<null>	<null>	<null>	<null>	<null>	<null>	<null>	<null>	<null>
1	12	6	48	6	4	24	4	6	24	6	6	6	6	6	6	6	6
2	24	12	96	12	8	48	8	12	48	12	12	12	12	12	12	12	12
3	36	18	144	18	12	72	12	18	72	18	18	18	18	18	18	18	18
4	48	24	192	24	16	96	16	24	96	24	24	24	24	24	24	24	24
5	60	30	240	30	20	120	20	30	120	30	30	30	30	30	30	30	30
6	72	36	288	36	24	144	24	36	144	36	36	36	36	36	36	36	36
7	84	42	336	42	28	168	28	42	168	42	42	42	42	42	42	42	42
8	96	48	384	48	32	192	32	48	192	48	48	48	48	48	48	48	48
9	108	54	432	54	36	216	36	54	216	54	54	54	54	54	54	54	54

[dUpgCore4]	2HndPA	2HndMA	2HndAR	1HndPA	1HndMA	1HndAR	MWpnPA	MWpnMA	MWpnAR	dSuit	dSuitDR	dGlov	dGlovDR	dBoot	dBootDR	dHMet	dHMetDR
0	<null>	<null>	<null>	<null>	<null>	<null>	<null>	<null>	<null>	<null>	<null>	<null>	<null>	<null>	<null>	<null>	<null>
1	12	8	48	6	4	24	4	6	24	6	6	6	6	6	6	6	6
2	24	16	96	12	8	48	8	12	48	12	12	12	12	12	12	12	12
3	36	24	144	18	12	72	12	18	72	18	18	18	18	18	18	18	18
4	48	32	192	24	16	96	16	24	96	24	24	24	24	24	24	24	24
5	60	40	240	30	20	120	20	30	120	30	30	30	30	30	30	30	30
6	72	48	288	36	24	144	24	36	144	36	36	36	36	36	36	36	36
7	84	56	336	42	28	168	28	42	168	42	42	42	42	42	42	42	42
8	96	64	384	48	32	192	32	48	192	48	48	48	48	48	48	48	48
9	108	72	432	54	36	216	36	54	216	54	54	54	54	54	54	54	54


[RareLink]	RareNum	OptCodeLnk	Grade4	Grade5	Grade6	Grade7	Grade8	Grade9	Grade10	ACSY
0	1	1	50	60	70	75	90	90	100	50
1	2	1	55	65	75	80	100	100	110	55
2	3	1	60	70	80	90	110	110	120	60
3	4	1	65	80	90	100	120	120	140	65
4	5	1	70	90	100	110	140	140	160	70
5	6	1	75	100	110	130	170	170	190	75
6	7	1	80	110	130	140	190	190	220	80
7	1	2	50	60	70	75	90	90	100	50
8	2	2	55	65	75	80	100	100	110	55
9	3	2	60	70	80	90	110	110	120	60
10	4	2	65	80	90	100	120	120	140	65
11	5	2	70	90	100	110	140	140	160	70
12	6	2	75	100	110	130	170	170	190	75
13	7	2	80	110	130	140	190	190	220	80
14	1	3	2	2	3	3	5	5	7	2
15	2	3	4	4	5	5	8	8	10	4
16	3	3	5	5	8	8	12	12	14	5
17	4	3	8	8	12	12	16	16	20	8
18	5	3	8	8	12	12	16	16	20	8
19	6	3	12	12	15	15	20	20	24	12
20	7	3	20	20	25	25	30	30	35	20
21	1	4	2	2	3	3	5	5	7	2
22	2	4	4	4	5	5	8	8	10	4
23	3	4	5	5	8	8	12	12	14	5
24	4	4	8	8	12	12	16	16	20	8
25	5	4	8	8	12	12	16	16	20	8
26	6	4	12	12	15	15	20	20	24	12
27	7	4	20	20	25	25	30	30	35	20
28	1	5	2	2	3	3	5	5	7	2
29	2	5	4	4	5	5	8	8	10	4
30	3	5	5	5	8	8	12	12	14	5
31	4	5	8	8	12	12	16	16	20	8
32	5	5	8	8	12	12	16	16	20	8
33	6	5	12	12	15	15	20	20	24	12
34	7	5	20	20	25	25	30	30	35	20
35	1	6	25	55	75	100	150	150	180	25
36	2	6	35	50	100	125	175	175	210	35
37	3	6	50	70	125	150	200	200	240	50
38	4	6	60	90	150	175	250	250	300	60
39	5	6	75	125	175	200	300	300	350	75
40	6	6	90	150	200	250	350	350	400	90
41	7	6	100	125	250	300	400	400	470	100
42	1	7	15	20	25	30	40	40	50	15
43	2	7	20	25	30	35	50	50	65	20
44	3	7	25	30	40	45	60	60	75	25
45	4	7	30	40	45	50	75	75	90	30
46	5	7	35	50	60	70	100	100	110	35
47	6	7	40	60	75	85	125	125	140	40
48	7	7	50	70	90	100	150	150	160	50
49	1	8	3	3	3	3	3	3	6	6
50	2	8	4	4	4	4	4	4	7	7
51	3	8	5	5	5	5	5	5	10	10
52	4	8	8	8	8	8	8	8	16	16
53	5	8	8	8	8	8	8	8	16	16
54	6	8	9	9	9	9	9	9	18	18
55	7	8	10	10	10	10	10	10	20	20
56	1	9	3	3	3	3	3	3	3	3
57	2	9	4	4	4	4	4	4	4	4
58	3	9	5	5	5	5	5	5	5	5
59	4	9	8	8	8	8	8	8	8	8
60	5	9	8	8	8	8	8	8	8	8
61	6	9	9	9	9	9	9	9	9	9
62	7	9	10	10	10	10	10	10	10	10
63	1	10	4	4	4	4	4	4	4	4
64	2	10	5	5	5	5	5	5	5	5
65	3	10	6	6	6	6	6	6	6	6
66	4	10	7	7	7	7	7	7	7	7
67	5	10	7	7	7	7	7	7	7	7
68	6	10	8	8	8	8	8	8	8	8
69	7	10	9	9	9	9	9	9	9	9
70	1	11	8	8	8	8	8	8	8	8
71	2	11	10	10	10	10	10	10	10	10
72	3	11	12	12	12	12	12	12	12	12
73	4	11	14	14	14	14	14	14	14	14
74	5	11	14	14	14	14	14	14	14	14
75	6	11	16	16	16	16	16	16	16	16
76	7	11	18	18	18	18	18	18	18	18
77	1	12	5	5	10	20	20	20	20	5
78	2	12	6	10	15	25	25	25	25	6
79	3	12	10	15	20	30	30	30	30	10
80	4	12	20	25	30	40	40	40	40	20
81	5	12	20	25	30	40	40	40	40	20
82	6	12	25	30	35	45	45	45	45	25
83	7	12	30	35	40	50	50	50	50	30
84	1	13	5	5	10	20	20	20	20	5
85	2	13	6	10	15	25	25	25	25	6
86	3	13	10	15	20	30	30	30	30	10
87	4	13	20	25	30	40	40	40	40	20
88	5	13	20	25	30	40	40	40	40	20
89	6	13	25	30	35	45	45	45	45	25
90	7	13	30	35	40	50	50	50	50	30
91	1	23	4	4	6	6	10	10	14	4
92	2	23	8	8	10	10	16	16	20	8
93	3	23	10	10	16	16	24	24	28	10
94	4	23	16	16	24	24	32	32	40	16
95	5	23	16	16	24	24	32	32	40	16
96	6	23	24	24	30	30	40	40	48	24
97	7	23	40	40	50	50	60	60	70	40
98	1	24	1	1	1	1	1	1	1	1
99	2	24	1	1	1	1	1	1	1	1
100	3	24	1	1	1	1	1	1	1	1
101	4	24	1	1	1	1	1	1	1	1
102	5	24	1	1	1	1	1	1	1	1
103	6	24	1	1	1	1	1	1	1	1
104	7	24	1	1	1	1	1	1	1	1
105	1	25	1	1	1	1	1	1	1	1
106	2	25	1	1	1	1	1	1	1	1
107	3	25	1	1	1	1	1	1	1	1
108	4	25	1	1	1	1	1	1	1	1
109	5	25	1	1	1	1	1	1	1	1
110	6	25	1	1	1	1	1	1	1	1
111	7	25	1	1	1	1	1	1	1	1
112	1	26	50	110	150	200	300	300	360	50
113	2	26	70	100	200	250	350	350	420	70
114	3	26	100	140	250	300	400	400	480	100
115	4	26	150	250	350	400	600	600	600	150
116	5	26	150	250	350	400	600	600	700	150
117	6	26	180	300	400	500	700	700	800	180
118	7	26	200	250	500	600	800	800	940	200
119	1	28	6	6	6	6	6	6	12	12
120	2	28	8	8	8	8	8	8	14	14
121	3	28	10	10	10	10	10	10	20	20
122	4	28	16	16	16	16	16	16	32	32
123	5	28	16	16	16	16	16	16	32	32
124	6	28	18	18	18	18	18	18	36	36
125	7	28	20	20	20	20	20	20	40	40
126	1	29	6	6	6	6	6	6	6	6
127	2	29	8	8	8	8	8	8	8	8
128	3	29	10	10	10	10	10	10	10	10
129	4	29	16	16	16	16	16	16	16	16
130	5	29	16	16	16	16	16	16	16	16
131	6	29	18	18	18	18	18	18	18	18
132	7	29	20	20	20	20	20	20	20	20
133	1	30	1	1	1	3	3	3	3	1
134	2	30	2	2	2	4	4	4	4	2
135	3	30	2	2	2	5	5	5	5	2
136	4	30	3	3	3	7	7	7	7	3
137	5	30	3	3	3	7	7	7	7	3
138	6	30	4	4	4	9	9	9	9	4
139	7	30	5	5	5	10	10	10	10	5
140	1	31	2	2	2	6	6	6	6	2
141	2	31	3	3	3	8	8	8	8	3
142	3	31	4	4	4	10	10	10	10	4
143	4	31	6	6	6	14	14	14	14	6
144	5	31	6	6	6	14	14	14	14	6
145	6	31	8	8	8	18	18	18	18	8
146	7	31	10	10	10	20	20	20	20	10
147	1	32	1	1	1	3	3	3	3	1
148	2	32	2	2	2	4	4	4	4	2
149	3	32	2	2	2	5	5	5	5	2
150	4	32	3	3	3	7	7	7	7	3
151	5	32	3	3	3	7	7	7	7	3
152	6	32	4	4	4	9	9	9	9	4
153	7	32	5	5	5	10	10	10	10	5
154	1	33	2	2	2	6	6	6	6	2
155	2	33	3	3	3	8	8	8	8	3
156	3	33	4	4	4	10	10	10	10	4
157	4	33	4	4	4	12	12	12	12	4
158	5	33	6	6	6	14	14	14	14	6
159	6	33	8	8	8	18	18	18	18	8
160	7	33	10	10	10	20	20	20	20	10
161	1	34	1	1	1	2	2	2	2	1
162	2	34	2	2	2	3	3	3	3	2
163	3	34	2	2	2	3	3	3	3	2
164	4	34	3	3	3	5	5	5	5	3
165	5	34	3	3	3	5	5	5	5	3
166	6	34	4	4	4	6	6	6	6	4
167	7	34	5	5	5	7	7	7	7	5
168	1	35	1	1	1	2	2	2	2	1
169	2	35	2	2	2	3	3	3	3	2
170	3	35	2	2	2	3	3	3	3	2
171	4	35	3	3	3	5	5	5	5	3
172	5	35	3	3	3	5	5	5	5	3
173	6	35	4	4	4	6	6	6	6	4
174	7	35	5	5	5	7	7	7	7	5
175	1	36	1	1	1	2	2	2	2	1
176	2	36	2	2	2	3	3	3	3	2
177	3	36	2	2	2	3	3	3	3	2
178	4	36	3	3	3	5	5	5	5	3
179	5	36	3	3	3	5	5	5	5	3
180	6	36	4	4	4	6	6	6	6	4
181	7	36	5	5	5	7	7	7	7	5
182	1	37	1	1	1	2	2	2	3	1
183	2	37	2	2	2	3	3	3	4	2
184	3	37	2	2	2	3	3	3	4	2
185	4	37	3	3	3	5	5	5	6	3
186	5	37	3	3	3	5	5	5	6	3
187	6	37	4	4	4	6	6	6	7	4
188	7	37	5	5	5	7	7	7	8	5
189	1	38	1	1	1	2	2	2	3	1
190	2	38	2	2	2	3	3	3	4	2
191	3	38	2	2	2	3	3	3	4	2
192	4	38	3	3	3	5	5	5	6	3
193	5	38	3	3	3	5	5	5	6	3
194	6	38	4	4	4	6	6	6	7	4
195	7	38	5	5	5	7	7	7	8	5
196	1	39	2	2	2	2	2	2	2	2
197	2	39	4	4	4	4	4	4	4	4
198	3	39	6	6	6	6	6	6	6	6
199	4	39	10	10	10	10	10	10	10	10
200	5	39	10	10	10	10	10	10	10	10
201	6	39	12	12	12	12	12	12	12	12
202	7	39	14	14	14	14	14	14	14	14
203	1	40	4	4	4	4	4	4	4	4
204	2	40	8	8	8	8	8	8	8	8
205	3	40	12	12	12	12	12	12	12	12
206	4	40	20	20	20	20	20	20	20	20
207	5	40	20	20	20	20	20	20	20	20
208	6	40	24	24	24	24	24	24	24	24
209	7	40	28	28	28	28	28	28	28	28
210	1	41	1	1	1	1	1	1	1	1
211	2	41	2	2	2	2	2	2	2	2
212	3	41	3	3	3	3	3	3	3	3
213	4	41	4	4	4	4	4	4	4	4
214	5	41	4	4	4	4	4	4	4	4
215	6	41	5	5	5	5	5	5	5	5
216	7	41	7	7	7	7	7	7	7	7
217	1	42	2	2	2	2	2	2	2	2
218	2	42	4	4	4	4	4	4	4	4
219	3	42	6	6	6	6	6	6	6	6
220	4	42	8	8	8	8	8	8	8	8
221	5	42	8	8	8	8	8	8	8	8
222	6	42	10	10	10	10	10	10	10	10
223	7	42	14	14	14	14	14	14	14	14
224	1	43	10	10	10	10	10	10	10	10
225	2	43	15	15	15	15	15	15	15	15
226	3	43	20	20	20	20	20	20	20	20
227	4	43	30	30	30	30	30	30	30	30
228	5	43	30	30	30	30	30	30	30	30
229	6	43	40	40	40	40	40	40	40	40
230	7	43	50	50	50	50	50	50	50	50
231	1	44	20	20	20	20	20	20	20	20
232	2	44	30	30	30	30	30	30	30	30
233	3	44	40	40	40	40	40	40	40	40
234	4	44	60	60	60	60	60	60	60	60
235	5	44	60	60	60	60	60	60	60	60
236	6	44	80	80	80	80	80	80	80	80
237	7	44	100	100	100	100	100	100	100	100
238	1	45	1	2	2	3	3	4	4	1
239	2	45	2	3	3	4	4	5	5	2
240	3	45	2	3	4	5	5	6	6	2
241	4	45	3	4	5	5	6	7	7	3
242	5	45	3	4	5	6	7	7	7	3
243	6	45	3	5	6	7	7	8	8	3
244	7	45	5	7	8	9	10	11	11	5
245	1	46	1	2	2	3	3	4	4	1
246	2	46	2	3	3	4	4	5	5	2
247	3	46	2	3	4	5	5	6	6	2
248	4	46	3	4	5	5	6	7	7	3
249	5	46	3	4	5	6	7	7	7	3
250	6	46	3	5	6	7	7	8	8	3
251	7	46	5	7	8	9	10	11	11	5
252	1	47	1	2	2	3	3	4	4	1
253	2	47	2	3	3	4	4	5	5	2
254	3	47	2	3	4	5	5	6	6	2
255	4	47	3	4	5	5	6	7	7	3
256	5	47	3	4	5	6	7	7	7	3
257	6	47	3	5	6	7	7	8	8	3
258	7	47	5	7	8	9	10	11	11	5
259	1	48	1	1	1	1	1	1	1	1
260	2	48	1	1	1	1	1	1	1	1
261	3	48	1	1	1	1	1	1	1	1
262	4	48	1	1	1	1	1	1	1	1
263	5	48	1	1	1	1	1	1	1	1
264	6	48	1	1	1	1	1	1	1	1
265	7	48	1	1	1	1	1	1	1	1
266	1	49	2	2	2	2	2	2	2	2
267	2	49	3	3	3	3	3	3	3	3
268	3	49	4	4	4	4	4	4	4	4
269	4	49	5	5	5	5	5	5	5	5
270	5	49	6	6	6	6	6	6	6	6
271	6	49	7	7	7	7	7	7	7	7
272	7	49	8	8	8	8	8	8	8	8
273	1	50	4	4	4	4	4	4	4	4
274	2	50	6	6	6	6	6	6	6	6
275	3	50	8	8	8	8	8	8	8	8
276	4	50	10	10	10	10	10	10	10	10
277	5	50	12	12	12	12	12	12	12	12
278	6	50	14	14	14	14	14	14	14	14
279	7	50	16	16	16	16	16	16	16	16
280	1	51	1	1	1	1	1	1	1	1
281	2	51	2	2	2	2	2	2	2	2
282	3	51	3	3	3	3	3	3	3	3
283	4	51	4	4	4	4	4	4	4	4
284	5	51	5	5	5	5	5	5	5	5
285	6	51	6	6	6	6	6	6	6	6
286	7	51	7	7	7	7	7	7	7	7
287	1	52	2	2	2	2	2	2	2	2
288	2	52	4	4	4	4	4	4	4	4
289	3	52	6	6	6	6	6	6	6	6
290	4	52	8	8	8	8	8	8	8	8
291	5	52	10	10	10	10	10	10	10	10
292	6	52	12	12	12	12	12	12	12	12
293	7	52	14	14	14	14	14	14	14	14
294	1	53	1	1	1	1	1	1	1	1
295	2	53	1	1	1	1	1	1	1	1
296	3	53	1	1	1	1	1	1	1	1
297	4	53	1	1	1	1	1	1	1	1
298	5	53	1	1	1	1	1	1	1	1
299	6	53	1	1	1	1	1	1	1	1
300	7	53	1	1	1	1	1	1	1	1
301	1	54	1	1	1	1	1	1	1	1
302	2	54	1	1	1	1	1	1	1	1
303	3	54	1	1	1	1	1	1	1	1
304	4	54	1	1	1	1	1	1	1	1
305	5	54	1	1	1	1	1	1	1	1
306	6	54	1	1	1	1	1	1	1	1
307	7	54	1	1	1	1	1	1	1	1
308	1	55	1	1	1	1	1	1	1	1
309	2	55	1	1	1	1	1	1	1	1
310	3	55	1	1	1	1	1	1	1	1
311	4	55	1	1	1	1	1	1	1	1
312	5	55	1	1	1	1	1	1	1	1
313	6	55	1	1	1	1	1	1	1	1
314	7	55	1	1	1	1	1	1	1	1
315	1	56	1	1	1	1	1	1	1	1
316	2	56	1	1	1	1	1	1	1	1
317	3	56	1	1	1	1	1	1	1	1
318	4	56	1	1	1	1	1	1	1	1
319	5	56	1	1	1	1	1	1	1	1
320	6	56	1	1	1	1	1	1	1	1
321	7	56	1	1	1	1	1	1	1	1
322	1	57	1	1	1	1	1	1	1	1
323	2	57	1	1	1	1	1	1	1	1
324	3	57	1	1	1	1	1	1	1	1
325	4	57	1	1	1	1	1	1	1	1
326	5	57	1	1	1	1	1	1	1	1
327	6	57	1	1	1	1	1	1	1	1
328	7	57	1	1	1	1	1	1	1	1
329	1	58	1	1	1	1	1	1	1	1
330	2	58	1	1	1	1	1	1	1	1
331	3	58	1	1	1	1	1	1	1	1
332	4	58	1	1	1	1	1	1	1	1
333	5	58	1	1	1	1	1	1	1	1
334	6	58	1	1	1	1	1	1	1	1
335	7	58	1	1	1	1	1	1	1	1
336	1	59	1	1	1	1	1	1	1	1
337	2	59	1	1	1	1	1	1	1	1
338	3	59	1	1	1	1	1	1	1	1
339	4	59	1	1	1	1	1	1	1	1
340	5	59	1	1	1	1	1	1	1	1
341	6	59	1	1	1	1	1	1	1	1
342	7	59	1	1	1	1	1	1	1	1
343	1	60	1	1	1	1	1	1	1	1
344	2	60	1	1	1	1	1	1	1	1
345	3	60	1	1	1	1	1	1	1	1
346	4	60	1	1	1	1	1	1	1	1
347	5	60	1	1	1	1	1	1	1	1
348	6	60	1	1	1	1	1	1	1	1
349	7	60	1	1	1	1	1	1	1	1

[ExtenderLink]	CoreNum	OptCodeLnk	Extender
0	1	1	80
1	2	1	130
2	3	1	180
3	4	1	230
4	1	2	80
5	2	2	130
6	3	2	180
7	4	2	230
8	1	3	10
9	2	3	14
10	3	3	18
11	4	3	26
12	1	4	10
13	2	4	14
14	3	4	18
15	4	4	26
16	1	5	4
17	2	5	6
18	3	5	8
19	4	5	12
20	1	6	100
21	2	6	150
22	3	6	200
23	4	6	300
24	1	7	40
25	2	7	60
26	3	7	80
27	4	7	120
28	1	8	7
29	2	8	12
30	3	8	15
31	4	8	15
32	1	9	7
33	2	9	12
34	3	9	15
35	4	9	15
36	1	10	2
37	2	10	3
38	3	10	4
39	4	10	5
40	1	11	4
41	2	11	6
42	3	11	8
43	4	11	10
44	1	12	20
45	2	12	30
46	3	12	40
47	4	12	50
48	1	13	20
49	2	13	30
50	3	13	40
51	4	13	50
52	1	23	20
53	2	23	28
54	3	23	36
55	4	23	52
56	1	24	20
57	2	24	28
58	3	24	36
59	4	24	52
60	1	25	3
61	2	25	5
62	3	25	7
63	4	25	9
64	1	26	200
65	2	26	300
66	3	26	400
67	4	26	600
68	1	28	14
69	2	28	24
70	3	28	30
71	4	28	30
72	1	29	14
73	2	29	24
74	3	29	30
75	4	29	30
76	1	30	7
77	2	30	14
78	3	30	21
79	4	30	28
80	1	31	14
81	2	31	28
82	3	31	42
83	4	31	56
84	1	32	7
85	2	32	14
86	3	32	21
87	4	32	28
88	1	33	14
89	2	33	28
90	3	33	42
91	4	33	56
92	1	34	3
93	2	34	4
94	3	34	5
95	4	34	6
96	1	35	3
97	2	35	4
98	3	35	5
99	4	35	6
100	1	36	2
101	2	36	3
102	3	36	4
103	4	36	5
104	1	37	3
105	2	37	4
106	3	37	5
107	4	37	6
108	1	38	3
109	2	38	4
110	3	38	5
111	4	38	6
112	1	39	10
113	2	39	15
114	3	39	20
115	4	39	25
116	1	40	20
117	2	40	30
118	3	40	40
119	4	40	50
120	1	41	5
121	2	41	9
122	3	41	13
123	4	41	17
124	1	42	10
125	2	42	18
126	3	42	26
127	4	42	34
128	1	43	20
129	2	43	35
130	3	43	50
131	4	43	65
132	1	44	40
133	2	44	70
134	3	44	100
135	4	44	130
136	1	45	9
137	2	45	17
138	3	45	25
139	4	45	33
140	1	46	9
141	2	46	17
142	3	46	25
143	4	46	33
144	1	47	9
145	2	47	17
146	3	47	25
147	4	47	33
148	1	48	4
149	2	48	7
150	3	48	10
151	4	48	13
152	1	49	4
153	2	49	5
154	3	49	6
155	4	49	7
156	1	50	8
157	2	50	10
158	3	50	12
159	4	50	14
160	1	51	6
161	2	51	9
162	3	51	12
163	4	51	15
164	1	52	12
165	2	52	18
166	3	52	24
167	4	52	30
168	1	53	2
169	2	53	2
170	3	53	2
171	4	53	2
172	1	54	2
173	2	54	2
174	3	54	2
175	4	54	2
176	1	55	2
177	2	55	2
178	3	55	2
179	4	55	2
180	1	56	2
181	2	56	2
182	3	56	2
183	4	56	2
184	1	57	2
185	2	57	2
186	3	57	2
187	4	57	2
188	1	58	2
189	2	58	2
190	3	58	2
191	4	58	2
192	1	59	2
193	2	59	2
194	3	59	2
195	4	59	2
196	1	60	2
197	2	60	2
198	3	60	2
199	4	60	2

[EquipGrade]	CoreTableNum
0	0
1	0
2	0
3	0
4	0
5	1
6	1
7	2
8	2
9	2
10	3
11	3
12	3
13	4
